


































































































64 59 71 0 70 
35 8 32 41 72 
5 23 22 68 
42 76 36 50 55 
17 4 75 74 37 
49 45 33 61 46 
60 14 13 67 11 
57 12 3 19 2 
9 69 26 20 
62 73 53 10 27 
40 34 51 43 58 
28 44 6 54 56 
52 66 25 30 
48 21 24 47 29 
65 16 1 18 63 
39 7 15 38 31 
